
Gurobi 10.0.3 (linux64, gurobi_cl) logging started Thu Nov  2 11:33:58 2023

Set parameter Username
Set parameter TimeLimit to value 3600
Set parameter LogFile to value "RCPSP_60.log"
Set parameter Threads to value 32
Academic license - for non-commercial use only - expires 2024-10-30
Using license file /home/jrivera6/gurobi-licenses/v1003/compute-0-35/gurobi.lic

Gurobi Optimizer version 10.0.3 build v10.0.3rc0 (linux64)
Copyright (c) 2023, Gurobi Optimization, LLC

Read MPS format model from file RCPSP_60.mps
Reading time = 0.01 seconds
RCPSP_60: 5329 rows, 2080 columns, 17044 nonzeros

CPU model: Intel(R) Xeon(R) Gold 6130 CPU @ 2.10GHz, instruction set [SSE2|AVX|AVX2|AVX512]
Thread count: 32 physical cores, 32 logical processors, using up to 32 threads

Optimize a model with 5329 rows, 2080 columns and 17044 nonzeros
Model fingerprint: 0xb8556ac3
Variable types: 32 continuous, 2048 integer (2048 binary)
Coefficient statistics:
  Matrix range     [1e+00, 2e+02]
  Objective range  [1e+00, 1e+00]
  Bounds range     [1e+00, 1e+00]
  RHS range        [1e+00, 2e+02]
Presolve removed 2550 rows and 947 columns
Presolve time: 0.19s
Presolved: 2779 rows, 1133 columns, 9163 nonzeros
Variable types: 31 continuous, 1102 integer (1102 binary)

Root relaxation: objective 5.800000e+01, 391 iterations, 0.00 seconds (0.00 work units)

    Nodes    |    Current Node    |     Objective Bounds      |     Work
 Expl Unexpl |  Obj  Depth IntInf | Incumbent    BestBd   Gap | It/Node Time

     0     0   58.00000    0    4          -   58.00000      -     -    0s
     0     0   58.00000    0   36          -   58.00000      -     -    0s
     0     0   58.00000    0    6          -   58.00000      -     -    0s
H    0     0                      86.0000000   58.00000  32.6%     -    1s
*    0     0               0      58.0000000   58.00000  0.00%     -    1s

Cutting planes:
  Cover: 3
  Implied bound: 15
  Clique: 1
  MIR: 11
  StrongCG: 1
  Zero half: 1
  RLT: 11
  Relax-and-lift: 7

Explored 1 nodes (2406 simplex iterations) in 1.28 seconds (0.29 work units)
Thread count was 32 (of 32 available processors)

Solution count 2: 58 86 

Optimal solution found (tolerance 1.00e-04)
Best objective 5.800000000000e+01, best bound 5.800000000000e+01, gap 0.0000%

Wrote result file 'RCPSP_60.sol'

